154798 122 603779 15207535 177176 0.96
154648 110 544391 13603471 177188 0.95
155042 126 623575 16839976 175260 0.97
154658 118 583983 14639962 176800 0.93
153656 135 668116 16573976 176716 0.96
155964 108 534493 12914421 179164 0.99
154648 140 692861 16969615 181396 1
155168 100 494901 11550069 177326 0.97
154878 124 613677 15475604 177990 1
154950 104 514697 12228636 179850 0.91
